100 8
972 126
91 304
487 460
293 346
657 722
274 718
687 267
246 713
877 180
520 451
734 234
363 656
272 610
278 739
512 631
280 596
750 154
151 316
322 286
274 202
436 448
644 659
265 630
115 249
231 187
430 737
403 448
285 734
318 288
83 327
161 840
659 169
160 315
93 953
375 714
659 756
223 250
408 272
674 768
173 338
660 273
253 833
853 242
909 205
959 264
346 607
852 310
253 648
294 362
159 143
190 181
307 387
894 762
639 464
482 354
810 822
248 458
405 419
240 177
831 711
299 341
885 744
170 349
406 604
568 600
215 836
414 476
701 584
849 712
653 763
142 621
159 844
394 396
185 274
713 205
124 376
394 452
899 708
217 374
821 314
436 686
478 455
390 642
365 702
384 313
325 788
671 651
51 148
114 906
157 824
337 702
932 765
208 941
396 818
363 234
762 793
933 229
536 367
286 657
883 161
